(declare-fun reg_49_44 () (_ BitVec 8))
(declare-fun reg_49_13 () (_ BitVec 8))
(declare-fun reg_49_43 () (_ BitVec 32))
(declare-fun reg_49_12 () (_ BitVec 32))
(declare-fun reg_49_42 () (_ BitVec 32))
(declare-fun reg_49_11 () (_ BitVec 32))
(declare-fun reg_49_41 () (_ BitVec 32))
(declare-fun reg_49_10 () (_ BitVec 32))
(declare-fun reg_49_40 () (_ BitVec 64))
(declare-fun cond35_49_30 () (_ BitVec 64))
(declare-fun reg_49_39 () (_ BitVec 64))
(declare-fun cond23_49_27 () (_ BitVec 64))
(declare-fun reg_49_38 () (_ BitVec 64))
(declare-fun cond14_49_25 () (_ BitVec 64))
(declare-fun reg_49_37 () (_ BitVec 64))
(declare-fun cond_49_20 () (_ BitVec 64))
(declare-fun reg_49_36 () (_ BitVec 64))
(declare-fun reg_49_5 () (_ BitVec 64))
(declare-fun reg_49_35 () (_ BitVec 64))
(declare-fun reg_49_4 () (_ BitVec 64))
(declare-fun reg_49_34 () (_ BitVec 32))
(declare-fun reg_49_3 () (_ BitVec 32))
(declare-fun reg_49_33 () (_ BitVec 32))
(declare-fun reg_49_2 () (_ BitVec 32))
(declare-fun reg_49_32 () (_ BitVec 32))
(declare-fun reg_49_1 () (_ BitVec 32))
(declare-fun reg_49_31 () (_ BitVec 32))
(declare-fun reg_49_0 () (_ BitVec 32))
(declare-fun or29_49_29 () (_ BitVec 64))
(declare-fun i27_49_28 () (_ BitVec 64))
(declare-fun i23_49_15 () (_ BitVec 64))
(declare-fun i24_49_16 () (_ BitVec 64))
(declare-fun reg_49_9 () (_ BitVec 64))
(declare-fun i26_49_26 () (_ BitVec 64))
(declare-fun reg_49_8 () (_ BitVec 64))
(declare-fun or8_49_24 () (_ BitVec 64))
(declare-fun i25_49_21 () (_ BitVec 64))
(declare-fun and7_49_23 () (_ BitVec 64))
(declare-fun reg_49_7 () (_ BitVec 64))
(declare-fun or_49_19 () (_ BitVec 64))
(declare-fun i_49_14 () (_ BitVec 64))
(declare-fun and_49_18 () (_ BitVec 64))
(declare-fun reg_49_6 () (_ BitVec 64))
(assert (and (= reg_49_0 reg_49_0)
     (= reg_49_1 reg_49_1)
     (= reg_49_2 reg_49_2)
     (= reg_49_3 reg_49_3)
     (= reg_49_4 reg_49_4)
     (= reg_49_5 reg_49_5)
     (= reg_49_6 reg_49_6)
     (= reg_49_7 reg_49_7)
     (= reg_49_8 reg_49_8)
     (= reg_49_9 reg_49_9)
     (= reg_49_10 reg_49_10)
     (= reg_49_11 reg_49_11)
     (= reg_49_12 reg_49_12)
     (= reg_49_13 reg_49_13)
     (= reg_49_6 i_49_14)
     (= reg_49_4 i23_49_15)
     (= reg_49_5 i24_49_16)
     (= and_49_18 (bvand i24_49_16 #x8000000000000000))
     (= or_49_19 (bvor and_49_18 i23_49_15))
     (= cond_49_20 (ite (bvsge i_49_14 or_49_19) i_49_14 or_49_19))
     (= reg_49_7 i25_49_21)
     (= and7_49_23 (bvand i24_49_16 #x7fffffffffffffff))
     (= or8_49_24 (bvor and7_49_23 i23_49_15))
     (= cond14_49_25 (ite (bvsle i25_49_21 or8_49_24) i25_49_21 or8_49_24))
     (= reg_49_8 i26_49_26)
     (= cond23_49_27 (ite (bvuge i26_49_26 i23_49_15) i26_49_26 i23_49_15))
     (= reg_49_9 i27_49_28)
     (= or29_49_29 (bvor i24_49_16 i23_49_15))
     (= cond35_49_30 (ite (bvule i27_49_28 or29_49_29) i27_49_28 or29_49_29))
     (= reg_49_0 reg_49_31)
     (= reg_49_1 reg_49_32)
     (= reg_49_2 reg_49_33)
     (= reg_49_3 reg_49_34)
     (= reg_49_4 reg_49_35)
     (= reg_49_5 reg_49_36)
     (= cond_49_20 reg_49_37)
     (= cond14_49_25 reg_49_38)
     (= cond23_49_27 reg_49_39)
     (= cond35_49_30 reg_49_40)
     (= reg_49_10 reg_49_41)
     (= reg_49_11 reg_49_42)
     (= reg_49_12 reg_49_43)
     (= reg_49_13 reg_49_44)))

;{"reg":["reg_49_0",[""],"reg_49_1","reg_49_2","reg_49_3",["reg_49_4","reg_49_5"],"reg_49_6","reg_49_7","reg_49_8","reg_49_9","","","reg_49_10","reg_49_11","reg_49_12"]}
;{"reg":["reg_49_31",[""],"reg_49_32","reg_49_33","reg_49_34",["reg_49_35","reg_49_36"],"reg_49_37","reg_49_38","reg_49_39","reg_49_40","","","reg_49_41","reg_49_42","reg_49_43"]}
